895040
0 1 16805
1 26 15287
26 17 12605
17 39 18404
39 18 13572
18 3 26532
3 21 23621
21 12 39393
12 27 6411
27 30 12751
30 24 7859
24 38 4093
38 29 6375
29 36 941
36 25 14545
25 32 15457
32 11 3966
11 31 37145
31 4 3289
4 19 27356
19 22 33856
22 37 7448
37 28 744
28 35 16894
35 6 11793
6 5 28722
5 7 34947
7 14 26226
14 15 36815
15 16 43848
16 13 42390
13 2 30026
2 8 153162
8 33 90444
33 23 120117
23 34 115134
34 10 5412
10 9 5506
9 20 5744
20 0 6578
